N = 11;
H = 5;
T = 2;

avail = array3d(1..N, 1..H, 1..T, [0, 6, 1, 1, 3, 3, 7, 7, 2, 3, 5, 2, 3, 8, 5, 4, 8, 8, 8, 9, 10, 1, 8, 9, 6, 7, 3, 0, 1, 0, 1, 1, 1, 9, 5, 9, 5, 1, 5, 10, 5, 1, 2, 0, 1, 7, 10, 5, 5, 5, 2, 0, 4, 4, 4, 0, 4, 0, 0, 9, 6, 5, 3, 6, 6, 6, 1, 0, 0, 10, 8, 3, 4, 2, 6, 6, 10, 7, 10, 2, 4, 8, 2, 9, 1, 3, 6, 5, 2, 2, 4, 6, 8, 7, 7, 4, 2, 4, 0, 2, 3, 7, 8, 6, 3, 5, 6, 6, 4, 2]);

r = array2d(1..H, 1..T, [3, 4, 5, 1, 2, 2, 2, 3, 4, 4]);
